\ LP format - for model browsing. Use MPS format to capture full model detail.
Minimize
 
Subject To
 R0: C0 + C9 + C18 + C27 + C36 + C45 + C54 + C63 = 1
 R1: C1 + C10 + C19 + C28 + C37 + C46 + C55 + C64 = 1
 R2: C2 + C11 + C20 + C29 + C38 + C47 + C56 + C65 = 1
 R3: C3 + C12 + C21 + C30 + C39 + C48 + C57 + C66 = 1
 R4: C4 + C13 + C22 + C31 + C40 + C49 + C58 + C67 = 1
 R5: C5 + C14 + C23 + C32 + C41 + C50 + C59 + C68 = 1
 R6: C6 + C15 + C24 + C33 + C42 + C51 + C60 + C69 = 1
 R7: C7 + C16 + C25 + C34 + C43 + C52 + C61 + C70 = 1
 R8: C8 + C17 + C26 + C35 + C44 + C53 + C62 + C71 = 1
 R9: 8.1e+08 C0 + 1e+07 C1 + 8.5e+08 C2 + 9e+07 C3 + 1e+08 C4 + 4.9e+08 C5
   + 6.8e+08 C6 + 5e+08 C7 + 6.7e+08 C8 - 8.1e+08 C9 - 1e+07 C10
   - 8.5e+08 C11 - 9e+07 C12 - 1e+08 C13 - 4.9e+08 C14 - 6.8e+08 C15
   - 5e+08 C16 - 6.7e+08 C17 - C72 <= 0
 R10: 8.1e+08 C0 + 1e+07 C1 + 8.5e+08 C2 + 9e+07 C3 + 1e+08 C4 + 4.9e+08 C5
   + 6.8e+08 C6 + 5e+08 C7 + 6.7e+08 C8 - 8.1e+08 C18 - 1e+07 C19
   - 8.5e+08 C20 - 9e+07 C21 - 1e+08 C22 - 4.9e+08 C23 - 6.8e+08 C24
   - 5e+08 C25 - 6.7e+08 C26 - C72 <= 0
 R11: 8.1e+08 C0 + 1e+07 C1 + 8.5e+08 C2 + 9e+07 C3 + 1e+08 C4 + 4.9e+08 C5
   + 6.8e+08 C6 + 5e+08 C7 + 6.7e+08 C8 - 8.1e+08 C27 - 1e+07 C28
   - 8.5e+08 C29 - 9e+07 C30 - 1e+08 C31 - 4.9e+08 C32 - 6.8e+08 C33
   - 5e+08 C34 - 6.7e+08 C35 - C72 <= 0
 R12: 8.1e+08 C0 + 1e+07 C1 + 8.5e+08 C2 + 9e+07 C3 + 1e+08 C4 + 4.9e+08 C5
   + 6.8e+08 C6 + 5e+08 C7 + 6.7e+08 C8 - 8.1e+08 C36 - 1e+07 C37
   - 8.5e+08 C38 - 9e+07 C39 - 1e+08 C40 - 4.9e+08 C41 - 6.8e+08 C42
   - 5e+08 C43 - 6.7e+08 C44 - C72 <= 0
 R13: 8.1e+08 C0 + 1e+07 C1 + 8.5e+08 C2 + 9e+07 C3 + 1e+08 C4 + 4.9e+08 C5
   + 6.8e+08 C6 + 5e+08 C7 + 6.7e+08 C8 - 8.1e+08 C45 - 1e+07 C46
   - 8.5e+08 C47 - 9e+07 C48 - 1e+08 C49 - 4.9e+08 C50 - 6.8e+08 C51
   - 5e+08 C52 - 6.7e+08 C53 - C72 <= 0
 R14: 8.1e+08 C0 + 1e+07 C1 + 8.5e+08 C2 + 9e+07 C3 + 1e+08 C4 + 4.9e+08 C5
   + 6.8e+08 C6 + 5e+08 C7 + 6.7e+08 C8 - 8.1e+08 C54 - 1e+07 C55
   - 8.5e+08 C56 - 9e+07 C57 - 1e+08 C58 - 4.9e+08 C59 - 6.8e+08 C60
   - 5e+08 C61 - 6.7e+08 C62 - C72 <= 0
 R15: 8.1e+08 C0 + 1e+07 C1 + 8.5e+08 C2 + 9e+07 C3 + 1e+08 C4 + 4.9e+08 C5
   + 6.8e+08 C6 + 5e+08 C7 + 6.7e+08 C8 - 8.1e+08 C63 - 1e+07 C64
   - 8.5e+08 C65 - 9e+07 C66 - 1e+08 C67 - 4.9e+08 C68 - 6.8e+08 C69
   - 5e+08 C70 - 6.7e+08 C71 - C72 <= 0
 R16: - 8.1e+08 C0 + C72 >= 0
 R17: - 1e+07 C1 + C72 >= 0
 R18: - 8.5e+08 C2 + C72 >= 0
 R19: - 9e+07 C3 + C72 >= 0
 R20: - 1e+08 C4 + C72 >= 0
 R21: - 4.9e+08 C5 + C72 >= 0
 R22: - 6.8e+08 C6 + C72 >= 0
 R23: - 5e+08 C7 + C72 >= 0
 R24: - 6.7e+08 C8 + C72 >= 0
 R25: - 5.5e+08 C0 - 8.4e+08 C1 - 4.7e+08 C2 - 8.4e+08 C3 - 5.3e+08 C4
   - 6.5e+08 C5 - 3e+08 C6 - 4.8e+08 C7 - 2.2e+08 C8 + 5.5e+08 C9
   + 8.4e+08 C10 + 4.7e+08 C11 + 8.4e+08 C12 + 5.3e+08 C13 + 6.5e+08 C14
   + 3e+08 C15 + 4.8e+08 C16 + 2.2e+08 C17 - C73 <= 0
 R26: 5.5e+08 C9 + 8.4e+08 C10 + 4.7e+08 C11 + 8.4e+08 C12 + 5.3e+08 C13
   + 6.5e+08 C14 + 3e+08 C15 + 4.8e+08 C16 + 2.2e+08 C17 - 5.5e+08 C18
   - 8.4e+08 C19 - 4.7e+08 C20 - 8.4e+08 C21 - 5.3e+08 C22 - 6.5e+08 C23
   - 3e+08 C24 - 4.8e+08 C25 - 2.2e+08 C26 - C73 <= 0
 R27: 5.5e+08 C9 + 8.4e+08 C10 + 4.7e+08 C11 + 8.4e+08 C12 + 5.3e+08 C13
   + 6.5e+08 C14 + 3e+08 C15 + 4.8e+08 C16 + 2.2e+08 C17 - 5.5e+08 C27
   - 8.4e+08 C28 - 4.7e+08 C29 - 8.4e+08 C30 - 5.3e+08 C31 - 6.5e+08 C32
   - 3e+08 C33 - 4.8e+08 C34 - 2.2e+08 C35 - C73 <= 0
 R28: 5.5e+08 C9 + 8.4e+08 C10 + 4.7e+08 C11 + 8.4e+08 C12 + 5.3e+08 C13
   + 6.5e+08 C14 + 3e+08 C15 + 4.8e+08 C16 + 2.2e+08 C17 - 5.5e+08 C36
   - 8.4e+08 C37 - 4.7e+08 C38 - 8.4e+08 C39 - 5.3e+08 C40 - 6.5e+08 C41
   - 3e+08 C42 - 4.8e+08 C43 - 2.2e+08 C44 - C73 <= 0
 R29: 5.5e+08 C9 + 8.4e+08 C10 + 4.7e+08 C11 + 8.4e+08 C12 + 5.3e+08 C13
   + 6.5e+08 C14 + 3e+08 C15 + 4.8e+08 C16 + 2.2e+08 C17 - 5.5e+08 C45
   - 8.4e+08 C46 - 4.7e+08 C47 - 8.4e+08 C48 - 5.3e+08 C49 - 6.5e+08 C50
   - 3e+08 C51 - 4.8e+08 C52 - 2.2e+08 C53 - C73 <= 0
 R30: 5.5e+08 C9 + 8.4e+08 C10 + 4.7e+08 C11 + 8.4e+08 C12 + 5.3e+08 C13
   + 6.5e+08 C14 + 3e+08 C15 + 4.8e+08 C16 + 2.2e+08 C17 - 5.5e+08 C54
   - 8.4e+08 C55 - 4.7e+08 C56 - 8.4e+08 C57 - 5.3e+08 C58 - 6.5e+08 C59
   - 3e+08 C60 - 4.8e+08 C61 - 2.2e+08 C62 - C73 <= 0
 R31: 5.5e+08 C9 + 8.4e+08 C10 + 4.7e+08 C11 + 8.4e+08 C12 + 5.3e+08 C13
   + 6.5e+08 C14 + 3e+08 C15 + 4.8e+08 C16 + 2.2e+08 C17 - 5.5e+08 C63
   - 8.4e+08 C64 - 4.7e+08 C65 - 8.4e+08 C66 - 5.3e+08 C67 - 6.5e+08 C68
   - 3e+08 C69 - 4.8e+08 C70 - 2.2e+08 C71 - C73 <= 0
 R32: - 5.5e+08 C9 + C73 >= 0
 R33: - 8.4e+08 C10 + C73 >= 0
 R34: - 4.7e+08 C11 + C73 >= 0
 R35: - 8.4e+08 C12 + C73 >= 0
 R36: - 5.3e+08 C13 + C73 >= 0
 R37: - 6.5e+08 C14 + C73 >= 0
 R38: - 3e+08 C15 + C73 >= 0
 R39: - 4.8e+08 C16 + C73 >= 0
 R40: - 2.2e+08 C17 + C73 >= 0
 R41: - 7.5e+08 C0 - 6.8e+08 C1 - 5.2e+08 C2 - 5.1e+08 C3 - 1.9e+08 C4
   - 9.1e+08 C5 - 9.8e+08 C6 - 3.8e+08 C7 - 5e+07 C8 + 7.5e+08 C18
   + 6.8e+08 C19 + 5.2e+08 C20 + 5.1e+08 C21 + 1.9e+08 C22 + 9.1e+08 C23
   + 9.8e+08 C24 + 3.8e+08 C25 + 5e+07 C26 - C74 <= 0
 R42: - 7.5e+08 C9 - 6.8e+08 C10 - 5.2e+08 C11 - 5.1e+08 C12 - 1.9e+08 C13
   - 9.1e+08 C14 - 9.8e+08 C15 - 3.8e+08 C16 - 5e+07 C17 + 7.5e+08 C18
   + 6.8e+08 C19 + 5.2e+08 C20 + 5.1e+08 C21 + 1.9e+08 C22 + 9.1e+08 C23
   + 9.8e+08 C24 + 3.8e+08 C25 + 5e+07 C26 - C74 <= 0
 R43: 7.5e+08 C18 + 6.8e+08 C19 + 5.2e+08 C20 + 5.1e+08 C21 + 1.9e+08 C22
   + 9.1e+08 C23 + 9.8e+08 C24 + 3.8e+08 C25 + 5e+07 C26 - 7.5e+08 C27
   - 6.8e+08 C28 - 5.2e+08 C29 - 5.1e+08 C30 - 1.9e+08 C31 - 9.1e+08 C32
   - 9.8e+08 C33 - 3.8e+08 C34 - 5e+07 C35 - C74 <= 0
 R44: 7.5e+08 C18 + 6.8e+08 C19 + 5.2e+08 C20 + 5.1e+08 C21 + 1.9e+08 C22
   + 9.1e+08 C23 + 9.8e+08 C24 + 3.8e+08 C25 + 5e+07 C26 - 7.5e+08 C36
   - 6.8e+08 C37 - 5.2e+08 C38 - 5.1e+08 C39 - 1.9e+08 C40 - 9.1e+08 C41
   - 9.8e+08 C42 - 3.8e+08 C43 - 5e+07 C44 - C74 <= 0
 R45: 7.5e+08 C18 + 6.8e+08 C19 + 5.2e+08 C20 + 5.1e+08 C21 + 1.9e+08 C22
   + 9.1e+08 C23 + 9.8e+08 C24 + 3.8e+08 C25 + 5e+07 C26 - 7.5e+08 C45
   - 6.8e+08 C46 - 5.2e+08 C47 - 5.1e+08 C48 - 1.9e+08 C49 - 9.1e+08 C50
   - 9.8e+08 C51 - 3.8e+08 C52 - 5e+07 C53 - C74 <= 0
 R46: 7.5e+08 C18 + 6.8e+08 C19 + 5.2e+08 C20 + 5.1e+08 C21 + 1.9e+08 C22
   + 9.1e+08 C23 + 9.8e+08 C24 + 3.8e+08 C25 + 5e+07 C26 - 7.5e+08 C54
   - 6.8e+08 C55 - 5.2e+08 C56 - 5.1e+08 C57 - 1.9e+08 C58 - 9.1e+08 C59
   - 9.8e+08 C60 - 3.8e+08 C61 - 5e+07 C62 - C74 <= 0
 R47: 7.5e+08 C18 + 6.8e+08 C19 + 5.2e+08 C20 + 5.1e+08 C21 + 1.9e+08 C22
   + 9.1e+08 C23 + 9.8e+08 C24 + 3.8e+08 C25 + 5e+07 C26 - 7.5e+08 C63
   - 6.8e+08 C64 - 5.2e+08 C65 - 5.1e+08 C66 - 1.9e+08 C67 - 9.1e+08 C68
   - 9.8e+08 C69 - 3.8e+08 C70 - 5e+07 C71 - C74 <= 0
 R48: - 7.5e+08 C18 + C74 >= 0
 R49: - 6.8e+08 C19 + C74 >= 0
 R50: - 5.2e+08 C20 + C74 >= 0
 R51: - 5.1e+08 C21 + C74 >= 0
 R52: - 1.9e+08 C22 + C74 >= 0
 R53: - 9.1e+08 C23 + C74 >= 0
 R54: - 9.8e+08 C24 + C74 >= 0
 R55: - 3.8e+08 C25 + C74 >= 0
 R56: - 5e+07 C26 + C74 >= 0
 R57: - 2.9e+08 C0 - 9.7e+08 C1 - 4.2e+08 C2 - 5.5e+08 C3 - 3.6e+08 C4
   - 7.6e+08 C5 - 5.5e+08 C6 - 9.5e+08 C7 - 1.4e+08 C8 + 2.9e+08 C27
   + 9.7e+08 C28 + 4.2e+08 C29 + 5.5e+08 C30 + 3.6e+08 C31 + 7.6e+08 C32
   + 5.5e+08 C33 + 9.5e+08 C34 + 1.4e+08 C35 - C75 <= 0
 R58: - 2.9e+08 C9 - 9.7e+08 C10 - 4.2e+08 C11 - 5.5e+08 C12 - 3.6e+08 C13
   - 7.6e+08 C14 - 5.5e+08 C15 - 9.5e+08 C16 - 1.4e+08 C17 + 2.9e+08 C27
   + 9.7e+08 C28 + 4.2e+08 C29 + 5.5e+08 C30 + 3.6e+08 C31 + 7.6e+08 C32
   + 5.5e+08 C33 + 9.5e+08 C34 + 1.4e+08 C35 - C75 <= 0
 R59: - 2.9e+08 C18 - 9.7e+08 C19 - 4.2e+08 C20 - 5.5e+08 C21 - 3.6e+08 C22
   - 7.6e+08 C23 - 5.5e+08 C24 - 9.5e+08 C25 - 1.4e+08 C26 + 2.9e+08 C27
   + 9.7e+08 C28 + 4.2e+08 C29 + 5.5e+08 C30 + 3.6e+08 C31 + 7.6e+08 C32
   + 5.5e+08 C33 + 9.5e+08 C34 + 1.4e+08 C35 - C75 <= 0
 R60: 2.9e+08 C27 + 9.7e+08 C28 + 4.2e+08 C29 + 5.5e+08 C30 + 3.6e+08 C31
   + 7.6e+08 C32 + 5.5e+08 C33 + 9.5e+08 C34 + 1.4e+08 C35 - 2.9e+08 C36
   - 9.7e+08 C37 - 4.2e+08 C38 - 5.5e+08 C39 - 3.6e+08 C40 - 7.6e+08 C41
   - 5.5e+08 C42 - 9.5e+08 C43 - 1.4e+08 C44 - C75 <= 0
 R61: 2.9e+08 C27 + 9.7e+08 C28 + 4.2e+08 C29 + 5.5e+08 C30 + 3.6e+08 C31
   + 7.6e+08 C32 + 5.5e+08 C33 + 9.5e+08 C34 + 1.4e+08 C35 - 2.9e+08 C45
   - 9.7e+08 C46 - 4.2e+08 C47 - 5.5e+08 C48 - 3.6e+08 C49 - 7.6e+08 C50
   - 5.5e+08 C51 - 9.5e+08 C52 - 1.4e+08 C53 - C75 <= 0
 R62: 2.9e+08 C27 + 9.7e+08 C28 + 4.2e+08 C29 + 5.5e+08 C30 + 3.6e+08 C31
   + 7.6e+08 C32 + 5.5e+08 C33 + 9.5e+08 C34 + 1.4e+08 C35 - 2.9e+08 C54
   - 9.7e+08 C55 - 4.2e+08 C56 - 5.5e+08 C57 - 3.6e+08 C58 - 7.6e+08 C59
   - 5.5e+08 C60 - 9.5e+08 C61 - 1.4e+08 C62 - C75 <= 0
 R63: 2.9e+08 C27 + 9.7e+08 C28 + 4.2e+08 C29 + 5.5e+08 C30 + 3.6e+08 C31
   + 7.6e+08 C32 + 5.5e+08 C33 + 9.5e+08 C34 + 1.4e+08 C35 - 2.9e+08 C63
   - 9.7e+08 C64 - 4.2e+08 C65 - 5.5e+08 C66 - 3.6e+08 C67 - 7.6e+08 C68
   - 5.5e+08 C69 - 9.5e+08 C70 - 1.4e+08 C71 - C75 <= 0
 R64: - 2.9e+08 C27 + C75 >= 0
 R65: - 9.7e+08 C28 + C75 >= 0
 R66: - 4.2e+08 C29 + C75 >= 0
 R67: - 5.5e+08 C30 + C75 >= 0
 R68: - 3.6e+08 C31 + C75 >= 0
 R69: - 7.6e+08 C32 + C75 >= 0
 R70: - 5.5e+08 C33 + C75 >= 0
 R71: - 9.5e+08 C34 + C75 >= 0
 R72: - 1.4e+08 C35 + C75 >= 0
 R73: - 8.9e+08 C0 - 6.9e+08 C1 - 9.6e+08 C2 - 2.8e+08 C3 - 5.5e+08 C4
   - 5.7e+08 C5 - 4.2e+08 C6 - 4.1e+08 C7 - 1.3e+08 C8 + 8.9e+08 C36
   + 6.9e+08 C37 + 9.6e+08 C38 + 2.8e+08 C39 + 5.5e+08 C40 + 5.7e+08 C41
   + 4.2e+08 C42 + 4.1e+08 C43 + 1.3e+08 C44 - C76 <= 0
 R74: - 8.9e+08 C9 - 6.9e+08 C10 - 9.6e+08 C11 - 2.8e+08 C12 - 5.5e+08 C13
   - 5.7e+08 C14 - 4.2e+08 C15 - 4.1e+08 C16 - 1.3e+08 C17 + 8.9e+08 C36
   + 6.9e+08 C37 + 9.6e+08 C38 + 2.8e+08 C39 + 5.5e+08 C40 + 5.7e+08 C41
   + 4.2e+08 C42 + 4.1e+08 C43 + 1.3e+08 C44 - C76 <= 0
 R75: - 8.9e+08 C18 - 6.9e+08 C19 - 9.6e+08 C20 - 2.8e+08 C21 - 5.5e+08 C22
   - 5.7e+08 C23 - 4.2e+08 C24 - 4.1e+08 C25 - 1.3e+08 C26 + 8.9e+08 C36
   + 6.9e+08 C37 + 9.6e+08 C38 + 2.8e+08 C39 + 5.5e+08 C40 + 5.7e+08 C41
   + 4.2e+08 C42 + 4.1e+08 C43 + 1.3e+08 C44 - C76 <= 0
 R76: - 8.9e+08 C27 - 6.9e+08 C28 - 9.6e+08 C29 - 2.8e+08 C30 - 5.5e+08 C31
   - 5.7e+08 C32 - 4.2e+08 C33 - 4.1e+08 C34 - 1.3e+08 C35 + 8.9e+08 C36
   + 6.9e+08 C37 + 9.6e+08 C38 + 2.8e+08 C39 + 5.5e+08 C40 + 5.7e+08 C41
   + 4.2e+08 C42 + 4.1e+08 C43 + 1.3e+08 C44 - C76 <= 0
 R77: 8.9e+08 C36 + 6.9e+08 C37 + 9.6e+08 C38 + 2.8e+08 C39 + 5.5e+08 C40
   + 5.7e+08 C41 + 4.2e+08 C42 + 4.1e+08 C43 + 1.3e+08 C44 - 8.9e+08 C45
   - 6.9e+08 C46 - 9.6e+08 C47 - 2.8e+08 C48 - 5.5e+08 C49 - 5.7e+08 C50
   - 4.2e+08 C51 - 4.1e+08 C52 - 1.3e+08 C53 - C76 <= 0
 R78: 8.9e+08 C36 + 6.9e+08 C37 + 9.6e+08 C38 + 2.8e+08 C39 + 5.5e+08 C40
   + 5.7e+08 C41 + 4.2e+08 C42 + 4.1e+08 C43 + 1.3e+08 C44 - 8.9e+08 C54
   - 6.9e+08 C55 - 9.6e+08 C56 - 2.8e+08 C57 - 5.5e+08 C58 - 5.7e+08 C59
   - 4.2e+08 C60 - 4.1e+08 C61 - 1.3e+08 C62 - C76 <= 0
 R79: 8.9e+08 C36 + 6.9e+08 C37 + 9.6e+08 C38 + 2.8e+08 C39 + 5.5e+08 C40
   + 5.7e+08 C41 + 4.2e+08 C42 + 4.1e+08 C43 + 1.3e+08 C44 - 8.9e+08 C63
   - 6.9e+08 C64 - 9.6e+08 C65 - 2.8e+08 C66 - 5.5e+08 C67 - 5.7e+08 C68
   - 4.2e+08 C69 - 4.1e+08 C70 - 1.3e+08 C71 - C76 <= 0
 R80: - 8.9e+08 C36 + C76 >= 0
 R81: - 6.9e+08 C37 + C76 >= 0
 R82: - 9.6e+08 C38 + C76 >= 0
 R83: - 2.8e+08 C39 + C76 >= 0
 R84: - 5.5e+08 C40 + C76 >= 0
 R85: - 5.7e+08 C41 + C76 >= 0
 R86: - 4.2e+08 C42 + C76 >= 0
 R87: - 4.1e+08 C43 + C76 >= 0
 R88: - 1.3e+08 C44 + C76 >= 0
 R89: - 6.8e+08 C0 - 9.4e+08 C1 - 5.1e+08 C2 - 6.8e+08 C3 - 3e+08 C4
   - 2.5e+08 C5 - 2.8e+08 C6 - 1.5e+08 C7 - 4.7e+08 C8 + 6.8e+08 C45
   + 9.4e+08 C46 + 5.1e+08 C47 + 6.8e+08 C48 + 3e+08 C49 + 2.5e+08 C50
   + 2.8e+08 C51 + 1.5e+08 C52 + 4.7e+08 C53 - C77 <= 0
 R90: - 6.8e+08 C9 - 9.4e+08 C10 - 5.1e+08 C11 - 6.8e+08 C12 - 3e+08 C13
   - 2.5e+08 C14 - 2.8e+08 C15 - 1.5e+08 C16 - 4.7e+08 C17 + 6.8e+08 C45
   + 9.4e+08 C46 + 5.1e+08 C47 + 6.8e+08 C48 + 3e+08 C49 + 2.5e+08 C50
   + 2.8e+08 C51 + 1.5e+08 C52 + 4.7e+08 C53 - C77 <= 0
 R91: - 6.8e+08 C18 - 9.4e+08 C19 - 5.1e+08 C20 - 6.8e+08 C21 - 3e+08 C22
   - 2.5e+08 C23 - 2.8e+08 C24 - 1.5e+08 C25 - 4.7e+08 C26 + 6.8e+08 C45
   + 9.4e+08 C46 + 5.1e+08 C47 + 6.8e+08 C48 + 3e+08 C49 + 2.5e+08 C50
   + 2.8e+08 C51 + 1.5e+08 C52 + 4.7e+08 C53 - C77 <= 0
 R92: - 6.8e+08 C27 - 9.4e+08 C28 - 5.1e+08 C29 - 6.8e+08 C30 - 3e+08 C31
   - 2.5e+08 C32 - 2.8e+08 C33 - 1.5e+08 C34 - 4.7e+08 C35 + 6.8e+08 C45
   + 9.4e+08 C46 + 5.1e+08 C47 + 6.8e+08 C48 + 3e+08 C49 + 2.5e+08 C50
   + 2.8e+08 C51 + 1.5e+08 C52 + 4.7e+08 C53 - C77 <= 0
 R93: - 6.8e+08 C36 - 9.4e+08 C37 - 5.1e+08 C38 - 6.8e+08 C39 - 3e+08 C40
   - 2.5e+08 C41 - 2.8e+08 C42 - 1.5e+08 C43 - 4.7e+08 C44 + 6.8e+08 C45
   + 9.4e+08 C46 + 5.1e+08 C47 + 6.8e+08 C48 + 3e+08 C49 + 2.5e+08 C50
   + 2.8e+08 C51 + 1.5e+08 C52 + 4.7e+08 C53 - C77 <= 0
 R94: 6.8e+08 C45 + 9.4e+08 C46 + 5.1e+08 C47 + 6.8e+08 C48 + 3e+08 C49
   + 2.5e+08 C50 + 2.8e+08 C51 + 1.5e+08 C52 + 4.7e+08 C53 - 6.8e+08 C54
   - 9.4e+08 C55 - 5.1e+08 C56 - 6.8e+08 C57 - 3e+08 C58 - 2.5e+08 C59
   - 2.8e+08 C60 - 1.5e+08 C61 - 4.7e+08 C62 - C77 <= 0
 R95: 6.8e+08 C45 + 9.4e+08 C46 + 5.1e+08 C47 + 6.8e+08 C48 + 3e+08 C49
   + 2.5e+08 C50 + 2.8e+08 C51 + 1.5e+08 C52 + 4.7e+08 C53 - 6.8e+08 C63
   - 9.4e+08 C64 - 5.1e+08 C65 - 6.8e+08 C66 - 3e+08 C67 - 2.5e+08 C68
   - 2.8e+08 C69 - 1.5e+08 C70 - 4.7e+08 C71 - C77 <= 0
 R96: - 6.8e+08 C45 + C77 >= 0
 R97: - 9.4e+08 C46 + C77 >= 0
 R98: - 5.1e+08 C47 + C77 >= 0
 R99: - 6.8e+08 C48 + C77 >= 0
 R100: - 3e+08 C49 + C77 >= 0
 R101: - 2.5e+08 C50 + C77 >= 0
 R102: - 2.8e+08 C51 + C77 >= 0
 R103: - 1.5e+08 C52 + C77 >= 0
 R104: - 4.7e+08 C53 + C77 >= 0
 R105: - 5.1e+08 C0 - 4.1e+08 C1 - 7.6e+08 C2 - 5.8e+08 C3 - 5e+07 C4
   - 5.1e+08 C5 - 4e+08 C6 - 4e+08 C7 - 4.2e+08 C8 + 5.1e+08 C54
   + 4.1e+08 C55 + 7.6e+08 C56 + 5.8e+08 C57 + 5e+07 C58 + 5.1e+08 C59
   + 4e+08 C60 + 4e+08 C61 + 4.2e+08 C62 - C78 <= 0
 R106: - 5.1e+08 C9 - 4.1e+08 C10 - 7.6e+08 C11 - 5.8e+08 C12 - 5e+07 C13
   - 5.1e+08 C14 - 4e+08 C15 - 4e+08 C16 - 4.2e+08 C17 + 5.1e+08 C54
   + 4.1e+08 C55 + 7.6e+08 C56 + 5.8e+08 C57 + 5e+07 C58 + 5.1e+08 C59
   + 4e+08 C60 + 4e+08 C61 + 4.2e+08 C62 - C78 <= 0
 R107: - 5.1e+08 C18 - 4.1e+08 C19 - 7.6e+08 C20 - 5.8e+08 C21 - 5e+07 C22
   - 5.1e+08 C23 - 4e+08 C24 - 4e+08 C25 - 4.2e+08 C26 + 5.1e+08 C54
   + 4.1e+08 C55 + 7.6e+08 C56 + 5.8e+08 C57 + 5e+07 C58 + 5.1e+08 C59
   + 4e+08 C60 + 4e+08 C61 + 4.2e+08 C62 - C78 <= 0
 R108: - 5.1e+08 C27 - 4.1e+08 C28 - 7.6e+08 C29 - 5.8e+08 C30 - 5e+07 C31
   - 5.1e+08 C32 - 4e+08 C33 - 4e+08 C34 - 4.2e+08 C35 + 5.1e+08 C54
   + 4.1e+08 C55 + 7.6e+08 C56 + 5.8e+08 C57 + 5e+07 C58 + 5.1e+08 C59
   + 4e+08 C60 + 4e+08 C61 + 4.2e+08 C62 - C78 <= 0
 R109: - 5.1e+08 C36 - 4.1e+08 C37 - 7.6e+08 C38 - 5.8e+08 C39 - 5e+07 C40
   - 5.1e+08 C41 - 4e+08 C42 - 4e+08 C43 - 4.2e+08 C44 + 5.1e+08 C54
   + 4.1e+08 C55 + 7.6e+08 C56 + 5.8e+08 C57 + 5e+07 C58 + 5.1e+08 C59
   + 4e+08 C60 + 4e+08 C61 + 4.2e+08 C62 - C78 <= 0
 R110: - 5.1e+08 C45 - 4.1e+08 C46 - 7.6e+08 C47 - 5.8e+08 C48 - 5e+07 C49
   - 5.1e+08 C50 - 4e+08 C51 - 4e+08 C52 - 4.2e+08 C53 + 5.1e+08 C54
   + 4.1e+08 C55 + 7.6e+08 C56 + 5.8e+08 C57 + 5e+07 C58 + 5.1e+08 C59
   + 4e+08 C60 + 4e+08 C61 + 4.2e+08 C62 - C78 <= 0
 R111: 5.1e+08 C54 + 4.1e+08 C55 + 7.6e+08 C56 + 5.8e+08 C57 + 5e+07 C58
   + 5.1e+08 C59 + 4e+08 C60 + 4e+08 C61 + 4.2e+08 C62 - 5.1e+08 C63
   - 4.1e+08 C64 - 7.6e+08 C65 - 5.8e+08 C66 - 5e+07 C67 - 5.1e+08 C68
   - 4e+08 C69 - 4e+08 C70 - 4.2e+08 C71 - C78 <= 0
 R112: - 5.1e+08 C54 + C78 >= 0
 R113: - 4.1e+08 C55 + C78 >= 0
 R114: - 7.6e+08 C56 + C78 >= 0
 R115: - 5.8e+08 C57 + C78 >= 0
 R116: - 5e+07 C58 + C78 >= 0
 R117: - 5.1e+08 C59 + C78 >= 0
 R118: - 4e+08 C60 + C78 >= 0
 R119: - 4e+08 C61 + C78 >= 0
 R120: - 4.2e+08 C62 + C78 >= 0
 R121: - 6.6e+08 C0 - 5.3e+08 C1 - 5.1e+08 C2 - 1.5e+08 C3 - 1.7e+08 C4
   - 6.5e+08 C5 - 2.7e+08 C6 - 6.8e+08 C7 - 7e+07 C8 + 6.6e+08 C63
   + 5.3e+08 C64 + 5.1e+08 C65 + 1.5e+08 C66 + 1.7e+08 C67 + 6.5e+08 C68
   + 2.7e+08 C69 + 6.8e+08 C70 + 7e+07 C71 - C79 <= 0
 R122: - 6.6e+08 C9 - 5.3e+08 C10 - 5.1e+08 C11 - 1.5e+08 C12 - 1.7e+08 C13
   - 6.5e+08 C14 - 2.7e+08 C15 - 6.8e+08 C16 - 7e+07 C17 + 6.6e+08 C63
   + 5.3e+08 C64 + 5.1e+08 C65 + 1.5e+08 C66 + 1.7e+08 C67 + 6.5e+08 C68
   + 2.7e+08 C69 + 6.8e+08 C70 + 7e+07 C71 - C79 <= 0
 R123: - 6.6e+08 C18 - 5.3e+08 C19 - 5.1e+08 C20 - 1.5e+08 C21
   - 1.7e+08 C22 - 6.5e+08 C23 - 2.7e+08 C24 - 6.8e+08 C25 - 7e+07 C26
   + 6.6e+08 C63 + 5.3e+08 C64 + 5.1e+08 C65 + 1.5e+08 C66 + 1.7e+08 C67
   + 6.5e+08 C68 + 2.7e+08 C69 + 6.8e+08 C70 + 7e+07 C71 - C79 <= 0
 R124: - 6.6e+08 C27 - 5.3e+08 C28 - 5.1e+08 C29 - 1.5e+08 C30
   - 1.7e+08 C31 - 6.5e+08 C32 - 2.7e+08 C33 - 6.8e+08 C34 - 7e+07 C35
   + 6.6e+08 C63 + 5.3e+08 C64 + 5.1e+08 C65 + 1.5e+08 C66 + 1.7e+08 C67
   + 6.5e+08 C68 + 2.7e+08 C69 + 6.8e+08 C70 + 7e+07 C71 - C79 <= 0
 R125: - 6.6e+08 C36 - 5.3e+08 C37 - 5.1e+08 C38 - 1.5e+08 C39
   - 1.7e+08 C40 - 6.5e+08 C41 - 2.7e+08 C42 - 6.8e+08 C43 - 7e+07 C44
   + 6.6e+08 C63 + 5.3e+08 C64 + 5.1e+08 C65 + 1.5e+08 C66 + 1.7e+08 C67
   + 6.5e+08 C68 + 2.7e+08 C69 + 6.8e+08 C70 + 7e+07 C71 - C79 <= 0
 R126: - 6.6e+08 C45 - 5.3e+08 C46 - 5.1e+08 C47 - 1.5e+08 C48
   - 1.7e+08 C49 - 6.5e+08 C50 - 2.7e+08 C51 - 6.8e+08 C52 - 7e+07 C53
   + 6.6e+08 C63 + 5.3e+08 C64 + 5.1e+08 C65 + 1.5e+08 C66 + 1.7e+08 C67
   + 6.5e+08 C68 + 2.7e+08 C69 + 6.8e+08 C70 + 7e+07 C71 - C79 <= 0
 R127: - 6.6e+08 C54 - 5.3e+08 C55 - 5.1e+08 C56 - 1.5e+08 C57
   - 1.7e+08 C58 - 6.5e+08 C59 - 2.7e+08 C60 - 6.8e+08 C61 - 7e+07 C62
   + 6.6e+08 C63 + 5.3e+08 C64 + 5.1e+08 C65 + 1.5e+08 C66 + 1.7e+08 C67
   + 6.5e+08 C68 + 2.7e+08 C69 + 6.8e+08 C70 + 7e+07 C71 - C79 <= 0
 R128: - 6.6e+08 C63 + C79 >= 0
 R129: - 5.3e+08 C64 + C79 >= 0
 R130: - 5.1e+08 C65 + C79 >= 0
 R131: - 1.5e+08 C66 + C79 >= 0
 R132: - 1.7e+08 C67 + C79 >= 0
 R133: - 6.5e+08 C68 + C79 >= 0
 R134: - 2.7e+08 C69 + C79 >= 0
 R135: - 6.8e+08 C70 + C79 >= 0
 R136: - 7e+07 C71 + C79 >= 0
 R137: - 8.1e+08 C0 + C80 = 0
 R138: - 1e+07 C1 + C81 = 0
 R139: - 8.5e+08 C2 + C82 = 0
 R140: - 9e+07 C3 + C83 = 0
 R141: - 1e+08 C4 + C84 = 0
 R142: - 4.9e+08 C5 + C85 = 0
 R143: - 6.8e+08 C6 + C86 = 0
 R144: - 5e+08 C7 + C87 = 0
 R145: - 6.7e+08 C8 + C88 = 0
 R146: - 5.5e+08 C9 + C89 = 0
 R147: - 8.4e+08 C10 + C90 = 0
 R148: - 4.7e+08 C11 + C91 = 0
 R149: - 8.4e+08 C12 + C92 = 0
 R150: - 5.3e+08 C13 + C93 = 0
 R151: - 6.5e+08 C14 + C94 = 0
 R152: - 3e+08 C15 + C95 = 0
 R153: - 4.8e+08 C16 + C96 = 0
 R154: - 2.2e+08 C17 + C97 = 0
 R155: - 7.5e+08 C18 + C98 = 0
 R156: - 6.8e+08 C19 + C99 = 0
 R157: - 5.2e+08 C20 + C100 = 0
 R158: - 5.1e+08 C21 + C101 = 0
 R159: - 1.9e+08 C22 + C102 = 0
 R160: - 9.1e+08 C23 + C103 = 0
 R161: - 9.8e+08 C24 + C104 = 0
 R162: - 3.8e+08 C25 + C105 = 0
 R163: - 5e+07 C26 + C106 = 0
 R164: - 2.9e+08 C27 + C107 = 0
 R165: - 9.7e+08 C28 + C108 = 0
 R166: - 4.2e+08 C29 + C109 = 0
 R167: - 5.5e+08 C30 + C110 = 0
 R168: - 3.6e+08 C31 + C111 = 0
 R169: - 7.6e+08 C32 + C112 = 0
 R170: - 5.5e+08 C33 + C113 = 0
 R171: - 9.5e+08 C34 + C114 = 0
 R172: - 1.4e+08 C35 + C115 = 0
 R173: - 8.9e+08 C36 + C116 = 0
 R174: - 6.9e+08 C37 + C117 = 0
 R175: - 9.6e+08 C38 + C118 = 0
 R176: - 2.8e+08 C39 + C119 = 0
 R177: - 5.5e+08 C40 + C120 = 0
 R178: - 5.7e+08 C41 + C121 = 0
 R179: - 4.2e+08 C42 + C122 = 0
 R180: - 4.1e+08 C43 + C123 = 0
 R181: - 1.3e+08 C44 + C124 = 0
 R182: - 6.8e+08 C45 + C125 = 0
 R183: - 9.4e+08 C46 + C126 = 0
 R184: - 5.1e+08 C47 + C127 = 0
 R185: - 6.8e+08 C48 + C128 = 0
 R186: - 3e+08 C49 + C129 = 0
 R187: - 2.5e+08 C50 + C130 = 0
 R188: - 2.8e+08 C51 + C131 = 0
 R189: - 1.5e+08 C52 + C132 = 0
 R190: - 4.7e+08 C53 + C133 = 0
 R191: - 5.1e+08 C54 + C134 = 0
 R192: - 4.1e+08 C55 + C135 = 0
 R193: - 7.6e+08 C56 + C136 = 0
 R194: - 5.8e+08 C57 + C137 = 0
 R195: - 5e+07 C58 + C138 = 0
 R196: - 5.1e+08 C59 + C139 = 0
 R197: - 4e+08 C60 + C140 = 0
 R198: - 4e+08 C61 + C141 = 0
 R199: - 4.2e+08 C62 + C142 = 0
 R200: - 6.6e+08 C63 + C143 = 0
 R201: - 5.3e+08 C64 + C144 = 0
 R202: - 5.1e+08 C65 + C145 = 0
 R203: - 1.5e+08 C66 + C146 = 0
 R204: - 1.7e+08 C67 + C147 = 0
 R205: - 6.5e+08 C68 + C148 = 0
 R206: - 2.7e+08 C69 + C149 = 0
 R207: - 6.8e+08 C70 + C150 = 0
 R208: - 7e+07 C71 + C151 = 0
Bounds
Binaries
 C0 C1 C2 C3 C4 C5 C6 C7 C8 C9 C10 C11 C12 C13 C14 C15 C16 C17 C18 C19 C20
 C21 C22 C23 C24 C25 C26 C27 C28 C29 C30 C31 C32 C33 C34 C35 C36 C37 C38
 C39 C40 C41 C42 C43 C44 C45 C46 C47 C48 C49 C50 C51 C52 C53 C54 C55 C56
 C57 C58 C59 C60 C61 C62 C63 C64 C65 C66 C67 C68 C69 C70 C71
General Constraints
 GC0: C72 = MAX ( C80 , C81 , C82 , C83 , C84 , C85 , C86 , C87 , C88 )
 GC1: C73 = MAX ( C89 , C90 , C91 , C92 , C93 , C94 , C95 , C96 , C97 )
 GC2: C74 = MAX ( C98 , C99 , C100 , C101 , C102 , C103 , C104 , C105 ,
   C106 )
 GC3: C75 = MAX ( C107 , C108 , C109 , C110 , C111 , C112 , C113 , C114 ,
   C115 )
 GC4: C76 = MAX ( C116 , C117 , C118 , C119 , C120 , C121 , C122 , C123 ,
   C124 )
 GC5: C77 = MAX ( C125 , C126 , C127 , C128 , C129 , C130 , C131 , C132 ,
   C133 )
 GC6: C78 = MAX ( C134 , C135 , C136 , C137 , C138 , C139 , C140 , C141 ,
   C142 )
 GC7: C79 = MAX ( C143 , C144 , C145 , C146 , C147 , C148 , C149 , C150 ,
   C151 )
End
